objective value:                                  -13
t_n_5                                               1 	(obj:-1)
t_n_410                                             1 	(obj:-1)
t_n_509                                             1 	(obj:-1)
t_n_541                                             1 	(obj:-1)
t_n_553                                             1 	(obj:-1)
t_n_617                                             1 	(obj:-1)
t_n_703                                             1 	(obj:-1)
t_n_745                                             1 	(obj:-1)
t_n_815                                             1 	(obj:-1)
t_n_895                                             1 	(obj:-1)
t_n_968                                             1 	(obj:-1)
t_n_972                                             1 	(obj:-1)
t_n_979                                             1 	(obj:-1)
